17	4
22	20	17	25	
0	0	0	0	0	3	2	3	4	
7	3	2	0	6	1	8	
1	0	0	7	5	3	5	6	7	
7	0	0	4	0	2	9	17	
7	0	0	2	10	1	8	
100	9	2	10	0	3	11	17	17	
250	5	10	7	2	2	10	13	
175	0	0	8	0	2	16	17	
225	10	0	0	4	1	17	
200	6	0	0	0	3	12	17	17	
225	7	0	0	0	3	15	17	17	
25	0	10	8	0	1	14	
3	10	0	0	10	1	17	
3	0	10	0	5	2	17	17	
10	4	0	0	5	1	17	
6	0	0	7	1	1	17	
0	0	0	0	0	0	
